c 
c G(k,n,p) graph
c graph gen seed     : 14827
c number of vertices : 30
c max number of edges: 500
c number of classes  : 2
c edge density       : 0.400000
c edge probability   : 0.800000
c data structure     : sparse
c
c           Graph Stats
c number of vertices  : 30
c nonisolated vertices: 30
c number of edges     : 146
c edge density        : 0.335632
c max degree          : 21
c avg degree          : 9.73
c min degree          : 4
p col 30 146
e 1 29
e 1 24
e 1 21
e 1 20
e 1 19
e 1 14
e 1 11
e 2 29
e 2 28
e 2 24
e 2 21
e 2 20
e 2 19
e 2 14
e 2 11
e 3 28
e 3 24
e 3 21
e 3 20
e 3 19
e 3 14
e 4 24
e 4 21
e 4 19
e 4 14
e 4 11
e 5 28
e 5 24
e 5 21
e 5 20
e 5 19
e 5 14
e 5 11
e 6 28
e 6 24
e 6 21
e 6 20
e 6 19
e 6 14
e 6 11
e 7 29
e 7 28
e 7 24
e 7 21
e 7 20
e 7 19
e 7 14
e 7 11
e 8 29
e 8 28
e 8 24
e 8 21
e 8 20
e 8 19
e 8 14
e 8 11
e 9 29
e 9 28
e 9 24
e 9 21
e 9 19
e 9 14
e 9 11
e 10 24
e 10 21
e 10 20
e 10 19
e 10 11
e 11 30
e 11 27
e 11 25
e 11 23
e 11 17
e 11 15
e 11 13
e 11 12
e 12 29
e 12 28
e 12 24
e 12 21
e 12 20
e 12 19
e 12 14
e 13 20
e 13 19
e 13 14
e 14 30
e 14 27
e 14 26
e 14 23
e 14 22
e 14 18
e 14 17
e 14 16
e 14 15
e 15 21
e 15 20
e 15 19
e 16 29
e 16 24
e 16 21
e 16 20
e 16 19
e 17 29
e 17 28
e 17 24
e 17 21
e 17 20
e 17 19
e 18 28
e 18 24
e 18 21
e 18 20
e 18 19
e 19 30
e 19 26
e 19 25
e 19 23
e 20 30
e 20 26
e 20 25
e 20 23
e 20 22
e 21 30
e 21 27
e 21 26
e 21 25
e 21 23
e 21 22
e 22 29
e 22 28
e 22 24
e 23 29
e 23 28
e 23 24
e 24 30
e 24 27
e 24 26
e 24 25
e 25 29
e 25 28
e 26 29
e 26 28
e 27 29
e 27 28
e 29 30
